112 10 166 156 12 119 93 139 95 23 194 104 180 146 29 53 89 41 198 48 138 16 152 80 130 84 52 36 191 176 182 51 30 77 153 67 186 189 37 92 78 109 74 63 140 1 96 171 129 128 7 158 97 122 126 24 123 15 199 178 26 164 157 20 120 135 42 43 11 197 196 190 28 94 187 83 107 102 44 39 103 49 169 22 145 79 192 113 64 9 31 175 148 167 32 151 188 27 98 33 68 61 177 91 183 57 75 8 47 118 134 69 65 0 21 173 46 17 108 179 81 82 121 105 50 155 159 88 142 117 181 25 195 19 101 66 124 14 45 170 144 168 162 141 4 143 70 38 76 54 116 137 133 90 147 154 2 106 58 184 172 71 13 111 131 35 6 59 18 110 136 85 165 56 193 5 150 99 3 34 163 114 87 62 132 86 160 127 72 125 174 100 73 40 185 55 60 161 149 115